


































































































9 11 60 56 64 
5 59 21 69 50 
15 17 4 37 42 44 
47 13 55 6 2 
28 22 30 24 54 
34 3 70 16 14 
51 72 61 33 23 
39 48 76 12 25 
7 65 31 71 67 
49 66 35 10 74 
73 27 68 52 29 
18 1 58 26 0 32 
63 75 41 38 36 

19 43 53 20 57 
8 62 40 46 45 
